objective value:                                   -5
t_n_5                                               1 	(obj:-1)
t_n_412                                             1 	(obj:-1)
t_n_472                                             1 	(obj:-1)
t_n_762                                             1 	(obj:-1)
t_n_906                                             1 	(obj:-1)
